c Source: TUDataset MUTAG, graph #92
c Original: n=19, m=22
c Augmented: +7 edges, n=21 -> m=29, circuit_rank=9
c Augmented to satisfy Eulerian condition (no parallel edges)
p sp 21
e 3 19
e 8 9
e 5 7
e 13 14
e 4 5
e 15 17
e 1 6
e 9 10
e 18 19
e 3 4
e 5 6
e 4 10
e 15 16
e 1 2
e 10 11
e 11 12
e 11 18
e 7 8
e 2 3
e 13 15
e 9 14
e 12 13
e 3 20
e 4 20
e 5 10
e 9 11
e 13 21
e 15 21
e 16 17
